% demand
num_movements = 17;
loading_factor = [1600, 1500, 1250, 1150, 1850, 1300, 1400, 1500, 1200, 1550, 1050, 1100, 1950, 1350, 1550, 850, 1850];
pickup_time = [0, 0, 0, 0, 1, 1, 1, 2, 2, 2, 5, 5, 5, 5, 7, 8, 10];
delivery_time = [2, 1, 1, 1, 2, 4, 4, 5, 5, 11, 7, 11, 9, 6, 11, 11, 11];

% transporter definition
total_capacity = 7000;
num_decks = 3;
capacity = [3000, 1000, 3000];

% ways out of decks
num_ways_out = 1;
paths_out = array3d(decks, ways_out, decks, [
% ways out of deck d1
2, 3, 0, 

% ways out of deck d2
3, 0, 0, 

% ways out of deck d3
0, 0, 0,	

]);

